presolving:
(round 1, fast)       281 del vars, 0 del conss, 0 add conss, 0 chg bounds, 0 chg sides, 0 chg coeffs, 0 upgd conss, 0 impls, 560 clqs
(round 2, exhaustive) 281 del vars, 0 del conss, 0 add conss, 0 chg bounds, 0 chg sides, 0 chg coeffs, 560 upgd conss, 0 impls, 560 clqs
   (3.0s) probing: 51/78120 (0.1%) - 0 fixings, 0 aggregations, 0 implications, 0 bound changes
   (3.0s) probing aborted: 50/50 successive totally useless probings
   Deactivated symmetry handling methods, since SCIP was built without symmetry detector (SYM=none).
presolving (3 rounds: 3 fast, 2 medium, 2 exhaustive):
 281 deleted vars, 0 deleted constraints, 0 added constraints, 0 tightened bounds, 0 added holes, 0 changed sides, 0 changed coefficients
 0 implications, 560 cliques
presolved problem has 78399 variables (78120 bin, 0 int, 0 impl, 279 cont) and 78122 constraints
    560 constraints of type <setppc>
  77562 constraints of type <linear>
Presolving Time: 3.00

 time | node  | left  |LP iter|LP it/n|mem/heur|mdpt |vars |cons |rows |cuts |sepa|confs|strbr|  dualbound   | primalbound  |  gap   | compl. 
p 7.0s|     1 |     0 |   305 |     - | vbounds|   0 |  78k|  78k|  78k|   0 |  0 |   5 |   0 | 0.000000e+00 | 2.840756e+03 |    Inf | unknown
  7.0s|     1 |     0 |  1144 |     - |   623M |   0 |  78k|  78k|  78k|   0 |  0 |   5 |   0 | 2.431196e+03 | 2.840756e+03 |  16.85%| unknown
  9.0s|     1 |     0 |  1442 |     - |   637M |   0 |  78k|  78k|  78k| 214 |  1 |   5 |   0 | 2.483501e+03 | 2.840756e+03 |  14.39%| unknown
 11.0s|     1 |     0 |  1511 |     - |   647M |   0 |  78k|  78k|  78k| 277 |  2 |   5 |   0 | 2.483501e+03 | 2.840756e+03 |  14.39%| unknown
 13.0s|     1 |     0 |  1536 |     - |   656M |   0 |  78k|  78k|  78k| 280 |  3 |   5 |   0 | 2.483501e+03 | 2.840756e+03 |  14.39%| unknown
 15.0s|     1 |     0 |  1588 |     - |   665M |   0 |  78k|  78k|  78k| 316 |  4 |   5 |   0 | 2.483744e+03 | 2.840756e+03 |  14.37%| unknown
 17.0s|     1 |     0 |  1659 |     - |   675M |   0 |  78k|  78k|  78k| 335 |  5 |   5 |   0 | 2.484714e+03 | 2.840756e+03 |  14.33%| unknown
 19.0s|     1 |     0 |  1709 |     - |   683M |   0 |  78k|  78k|  78k| 358 |  6 |   5 |   0 | 2.487043e+03 | 2.840756e+03 |  14.22%| unknown
 21.0s|     1 |     0 |  1734 |     - |   692M |   0 |  78k|  78k|  78k| 368 |  7 |   5 |   0 | 2.487155e+03 | 2.840756e+03 |  14.22%| unknown
 23.0s|     1 |     0 |  1757 |     - |   703M |   0 |  78k|  78k|  78k| 378 |  8 |   5 |   0 | 2.488506e+03 | 2.840756e+03 |  14.16%| unknown
 25.0s|     1 |     0 |  1821 |     - |   712M |   0 |  78k|  78k|  78k| 407 |  9 |   5 |   0 | 2.491760e+03 | 2.840756e+03 |  14.01%| unknown
 27.0s|     1 |     0 |  1862 |     - |   721M |   0 |  78k|  78k|  78k| 432 | 10 |   5 |   0 | 2.491760e+03 | 2.840756e+03 |  14.01%| unknown
 29.0s|     1 |     0 |  1895 |     - |   729M |   0 |  78k|  78k|  78k| 444 | 11 |   5 |   0 | 2.492006e+03 | 2.840756e+03 |  13.99%| unknown
 31.0s|     1 |     0 |  1919 |     - |   737M |   0 |  78k|  78k|  78k| 461 | 12 |   5 |   0 | 2.492006e+03 | 2.840756e+03 |  13.99%| unknown
 33.0s|     1 |     0 |  1952 |     - |   744M |   0 |  78k|  78k|  78k| 473 | 13 |   5 |   0 | 2.492170e+03 | 2.840756e+03 |  13.99%| unknown
 time | node  | left  |LP iter|LP it/n|mem/heur|mdpt |vars |cons |rows |cuts |sepa|confs|strbr|  dualbound   | primalbound  |  gap   | compl. 
 44.0s|     1 |     0 |  2001 |     - |   752M |   0 |  78k|  78k|  78k| 483 | 14 |   5 |   0 | 2.492316e+03 | 2.840756e+03 |  13.98%| unknown
 47.0s|     1 |     0 |  2060 |     - |   761M |   0 |  78k|  78k|  78k| 501 | 15 |   5 |   0 | 2.492798e+03 | 2.840756e+03 |  13.96%| unknown
 49.0s|     1 |     0 |  2105 |     - |   769M |   0 |  78k|  78k|  78k| 524 | 16 |   5 |   0 | 2.492798e+03 | 2.840756e+03 |  13.96%| unknown
 52.0s|     1 |     0 |  2179 |     - |   776M |   0 |  78k|  78k|  78k| 535 | 17 |   5 |   0 | 2.493351e+03 | 2.840756e+03 |  13.93%| unknown
 54.0s|     1 |     0 |  2212 |     - |   784M |   0 |  78k|  78k|  78k| 550 | 18 |   5 |   0 | 2.493351e+03 | 2.840756e+03 |  13.93%| unknown
 56.0s|     1 |     0 |  2241 |     - |   792M |   0 |  78k|  78k|  78k| 556 | 19 |   5 |   0 | 2.493434e+03 | 2.840756e+03 |  13.93%| unknown
 68.0s|     1 |     0 |  2261 |     - |   799M |   0 |  78k|  78k|  78k| 566 | 20 |   5 |   0 | 2.493434e+03 | 2.840756e+03 |  13.93%| unknown
 70.0s|     1 |     0 |  2332 |     - |   799M |   0 |  78k|  78k|  78k| 580 | 21 |   5 |   0 | 2.493697e+03 | 2.840756e+03 |  13.92%| unknown
 72.0s|     1 |     0 |  2347 |     - |   799M |   0 |  78k|  78k|  78k| 594 | 22 |   5 |   0 | 2.493697e+03 | 2.840756e+03 |  13.92%| unknown
 74.0s|     1 |     0 |  2352 |     - |   799M |   0 |  78k|  78k|  78k| 599 | 23 |   5 |   0 | 2.493697e+03 | 2.840756e+03 |  13.92%| unknown
 77.0s|     1 |     0 |  2359 |     - |   799M |   0 |  78k|  78k|  78k| 607 | 24 |   5 |   0 | 2.493697e+03 | 2.840756e+03 |  13.92%| unknown
 79.0s|     1 |     0 |  2361 |     - |   799M |   0 |  78k|  78k|  78k| 609 | 25 |   5 |   0 | 2.493697e+03 | 2.840756e+03 |  13.92%| unknown
 91.0s|     1 |     0 |  2397 |     - |   799M |   0 |  78k|  78k|  78k| 626 | 26 |   5 |   0 | 2.494606e+03 | 2.840756e+03 |  13.88%| unknown
 93.0s|     1 |     0 |  2415 |     - |   799M |   0 |  78k|  78k|  78k| 643 | 27 |   5 |   0 | 2.494606e+03 | 2.840756e+03 |  13.88%| unknown
 96.0s|     1 |     0 |  2417 |     - |   799M |   0 |  78k|  78k|  78k| 645 | 28 |   5 |   0 | 2.494606e+03 | 2.840756e+03 |  13.88%| unknown
 time | node  | left  |LP iter|LP it/n|mem/heur|mdpt |vars |cons |rows |cuts |sepa|confs|strbr|  dualbound   | primalbound  |  gap   | compl. 
 97.0s|     1 |     0 |  2418 |     - |   799M |   0 |  78k|  78k|  78k| 646 | 29 |   5 |   0 | 2.494606e+03 | 2.840756e+03 |  13.88%| unknown
  100s|     1 |     0 |  2425 |     - |   799M |   0 |  78k|  78k|  78k| 653 | 30 |   5 |   0 | 2.494606e+03 | 2.840756e+03 |  13.88%| unknown
  102s|     1 |     0 |  2430 |     - |   799M |   0 |  78k|  78k|  78k| 658 | 31 |   5 |   0 | 2.494606e+03 | 2.840756e+03 |  13.88%| unknown
  324s|     1 |     2 | 10557 |     - |   814M |   0 |  78k|  78k|  78k| 658 | 33 |   8 |  31 | 2.494994e+03 | 2.840756e+03 |  13.86%| unknown

SCIP Status        : solving was interrupted [time limit reached]
Solving Time (sec) : 600.00
Solving Nodes      : 6
Primal Bound       : +2.84075633088173e+03 (1 solutions)
Dual Bound         : +2.49500207763083e+03
Gap                : 13.86 %
Trying to solve problem with MTZ Solver Method...
Starting Solver, time limit setted to 10 minutes
Route:  [[0, 2], [1, 3], [2, 1], [3, 4], [4, 5], [5, 6], [6, 7], [7, 8], [8, 9], [9, 10], [10, 11], [11, 12], [12, 13], [13, 14], [14, 15], [15, 16], [16, 17], [17, 18], [18, 19], [19, 20], [20, 21], [21, 22], [22, 23], [23, 24], [24, 25], [25, 26], [26, 27], [27, 28], [28, 29], [29, 30], [30, 31], [31, 32], [32, 33], [33, 34], [34, 35], [35, 36], [36, 37], [37, 38], [38, 39], [39, 40], [40, 41], [41, 42], [42, 43], [43, 44], [44, 45], [45, 46], [46, 47], [47, 48], [48, 49], [49, 50], [50, 51], [51, 52], [52, 53], [53, 54], [54, 55], [55, 56], [56, 57], [57, 58], [58, 59], [59, 60], [60, 61], [61, 62], [62, 63], [63, 64], [64, 65], [65, 66], [66, 67], [67, 68], [68, 69], [69, 70], [70, 71], [71, 72], [72, 73], [73, 74], [74, 75], [75, 76], [76, 77], [77, 78], [78, 79], [79, 80], [80, 81], [81, 82], [82, 83], [83, 84], [84, 85], [85, 86], [86, 87], [87, 88], [88, 89], [89, 90], [90, 91], [91, 92], [92, 93], [93, 94], [94, 95], [95, 96], [96, 97], [97, 98], [98, 99], [99, 100], [100, 101], [101, 102], [102, 103], [103, 104], [104, 105], [105, 106], [106, 107], [107, 108], [108, 109], [109, 110], [110, 111], [111, 112], [112, 113], [113, 114], [114, 115], [115, 116], [116, 117], [117, 118], [118, 119], [119, 120], [120, 121], [121, 122], [122, 123], [123, 124], [124, 125], [125, 126], [126, 127], [127, 128], [128, 129], [129, 130], [130, 131], [131, 132], [132, 133], [133, 134], [134, 135], [135, 136], [136, 137], [137, 138], [138, 139], [139, 140], [140, 141], [141, 142], [142, 143], [143, 144], [144, 145], [145, 146], [146, 147], [147, 148], [148, 149], [149, 150], [150, 151], [151, 152], [152, 153], [153, 154], [154, 155], [155, 156], [156, 157], [157, 158], [158, 159], [159, 160], [160, 161], [161, 162], [162, 163], [163, 164], [164, 165], [165, 166], [166, 167], [167, 168], [168, 169], [169, 170], [170, 171], [171, 172], [172, 173], [173, 174], [174, 175], [175, 176], [176, 177], [177, 178], [178, 179], [179, 180], [180, 181], [181, 182], [182, 183], [183, 184], [184, 185], [185, 186], [186, 187], [187, 188], [188, 189], [189, 190], [190, 191], [191, 192], [192, 193], [193, 194], [194, 195], [195, 196], [196, 197], [197, 198], [198, 199], [199, 200], [200, 201], [201, 202], [202, 203], [203, 204], [204, 205], [205, 206], [206, 207], [207, 208], [208, 209], [209, 210], [210, 211], [211, 212], [212, 213], [213, 214], [214, 215], [215, 216], [216, 217], [217, 218], [218, 219], [219, 220], [220, 221], [221, 222], [222, 223], [223, 224], [224, 225], [225, 226], [226, 227], [227, 228], [228, 229], [229, 230], [230, 231], [231, 232], [232, 233], [233, 234], [234, 235], [235, 236], [236, 237], [237, 238], [238, 239], [239, 240], [240, 241], [241, 242], [242, 243], [243, 244], [244, 245], [245, 246], [246, 247], [247, 248], [248, 249], [249, 250], [250, 251], [251, 252], [252, 253], [253, 254], [254, 255], [255, 256], [256, 257], [257, 258], [258, 259], [259, 260], [260, 261], [261, 262], [262, 263], [263, 264], [264, 265], [265, 266], [266, 267], [267, 268], [268, 269], [269, 270], [270, 271], [271, 272], [272, 273], [273, 274], [274, 275], [275, 276], [276, 277], [277, 278], [278, 279], [279, 0]]
An Otimal Solution was found, yay!
Objective value: 2840.8
Problem solved in 10672 iterations
Problem solved in 6 nodes
Final Route Configuration succesfully created at:
data/routes/a280.csv
